Stiches/input.txt.dzn
n = 7;
colSum=[3,4,3,5,2,2,1];
rowSum=[1,3,5,2,5,0,4];
groups=[|1,1,1,1,2,2,2|1,3,3,1,2,2,2|1,1,1,4,4,2,5|6,7,1,2,2,2,5|6,7,1,7,2,2,5|6,7,7,7,5,2,5|6,7,7,5,5,5,5|];
rowN = 7;
colN = 7;
pair=[|0,1,1,1,0,1,1|0,0,0,1,1,0,1|1,0,0,0,0,0,0|0,1,0,0,0,0,0|0,1,0,0,0,0,0|0,0,0,0,0,0,1|1,1,0,0,1,0,0|];
