Stiches/input.txt
3_9_4_1_4_1_5_5_0_0_1_4_5_4_3_3_2_5_1_4;1,1,2,2,2,2,3,3,3,3,1,1,2,4,4,2,2,3,3,3,5,5,2,2,4,2,2,3,3,4,5,6,2,4,4,4,4,4,4,4,5,6,6,6,6,6,4,4,4,4,5,5,7,7,7,6,4,4,4,6,7,7,7,7,7,6,6,6,6,6,7,7,8,7,7,9,6,9,6,9,8,8,8,8,7,9,9,9,9,9,10,10,8,8,9,9,9,9,9,9